Route #1: 1 31 30 31 46 31 5 35 47 53 28 14 58 14 55 14 9 47 1 
Route #2: 1 31 49 48 37 6 38 16 38 21 37 60 37 22 29 23 29 3 31 1 
Route #3: 1 47 8 47 36 15 54 15 20 15 12 39 11 39 59 40 10 41 18 1 
Route #4: 1 17 4 41 33 51 26 51 19 51 45 41 13 27 1 
Route #5: 1 17 50 25 50 24 57 42 43 44 2 44 17 52 17 34 17 1 
Route #6: 1 7 1 
Cost 775.0
